
Gurobi 11.0.1 (win64) logging started Tue May 14 18:20:06 2024

Set parameter LogFile to value "output/solver_log7.txt"
Gurobi Optimizer version 11.0.1 build v11.0.1rc0 (win64 - Windows 11.0 (22631.2))

CPU model: 11th Gen Intel(R) Core(TM) i7-1165G7 @ 2.80GHz, instruction set [SSE2|AVX|AVX2|AVX512]
Thread count: 4 physical cores, 8 logical processors, using up to 8 threads

Optimize a model with 1124 rows, 267 columns and 21283 nonzeros
Model fingerprint: 0x4b94d89d
Variable types: 88 continuous, 179 integer (179 binary)
Coefficient statistics:
  Matrix range     [4e-01, 1e+05]
  Objective range  [1e+00, 1e+02]
  Bounds range     [1e+00, 1e+00]
  RHS range        [1e-02, 1e+05]

User MIP start produced solution with objective 38085.5 (0.00s)
User MIP start produced solution with objective 39225.1 (0.00s)
User MIP start produced solution with objective 39225.1 (0.00s)
Loaded user MIP start with objective 39225.1

Presolve removed 106 rows and 109 columns
Presolve time: 0.02s
Presolved: 1018 rows, 158 columns, 20342 nonzeros
Variable types: 82 continuous, 76 integer (75 binary)

Root relaxation: objective 4.127611e+04, 217 iterations, 0.01 seconds (0.03 work units)

    Nodes    |    Current Node    |     Objective Bounds      |     Work
 Expl Unexpl |  Obj  Depth IntInf | Incumbent    BestBd   Gap | It/Node Time

     0     0 41276.1148    0    5 39225.0551 41276.1148  5.23%     -    0s
     0     0 40185.8806    0    7 39225.0551 40185.8806  2.45%     -    0s
     0     0          -    0      39225.0551 39228.7930  0.01%     -    0s

Cutting planes:
  RLT: 2

Explored 1 nodes (713 simplex iterations) in 0.15 seconds (0.24 work units)
Thread count was 8 (of 8 available processors)

Solution count 3: 39225.1 39225.1 38085.5 

Optimal solution found (tolerance 1.00e-04)
Best objective 3.922505511593e+04, best bound 3.922879303141e+04, gap 0.0095%
